\Problem name: /xprs_122f470                                                    

Maximize
 C1 + C2

Subject To
R1: [ C1^2 + C2^2 ] <= 6 
R2: 2 C1 + 3 C2 + C3 = 2 
R3: [ - C3^2 + C4^2 + C5^2 ] <= 0 
R4: - 0.316227766016838 C1 + C4 = 0 
R5: - 0.316227766016838 C2 + C5 = 0 

Bounds
C4 free
C5 free

End
